200
300 300
1 210 795
2 210 320
3 209 179
4 208 755
5 208 765
6 207 993
7 206 67
8 206 720
9 205 446
10 205 328
11 201 485
12 198 909
13 198 761
14 198 862
15 195 323
16 195 937
17 194 691
18 194 319
19 193 177
20 192 7
21 192 466
22 191 359
23 191 7
24 191 525
25 190 926
26 189 865
27 189 696
28 187 621
29 186 793
30 184 712
31 182 861
32 181 464
33 180 738
34 179 901
35 179 200
36 179 275
37 178 584
38 178 280
39 177 182
40 176 708
41 176 990
42 175 512
43 175 515
44 173 720
45 172 460
46 171 105
47 171 236
48 170 284
49 170 565
50 166 116
51 164 980
52 164 459
53 163 43
54 163 916
55 162 695
56 162 153
57 161 212
58 160 863
59 159 559
60 158 785
61 157 76
62 155 28
63 154 69
64 154 824
65 153 764
66 152 835
67 152 140
68 151 436
69 151 972
70 151 862
71 150 242
72 148 906
73 147 546
74 147 86
75 147 359
76 147 881
77 147 653
78 146 624
79 146 469
80 144 137
81 143 853
82 142 541
83 142 680
84 141 573
85 141 818
86 140 724
87 139 880
88 136 445
89 134 495
90 134 223
91 133 910
92 133 714
93 130 944
94 130 473
95 129 13
96 129 143
97 127 697
98 127 646
99 127 863
100 127 302
101 127 805
102 124 485
103 123 272
104 123 880
105 123 6
106 122 900
107 121 230
108 121 86
109 120 124
110 119 193
111 119 632
112 118 692
113 118 399
114 118 305
115 117 831
116 115 67
117 114 619
118 113 371
119 113 709
120 113 983
121 111 276
122 110 442
123 110 584
124 108 790
125 108 372
126 107 141
127 106 417
128 105 944
129 104 767
130 103 297
131 102 621
132 102 886
133 101 368
134 100 709
135 100 695
136 99 93
137 99 856
138 98 899
139 98 329
140 97 220
141 95 467
142 95 726
143 95 94
144 95 750
145 93 200
146 91 935
147 91 263
148 91 221
149 91 806
150 90 680
151 90 507
152 90 812
153 90 363
154 89 562
155 88 494
156 88 548
157 87 455
158 86 582
159 84 306
160 84 892
161 83 612
162 82 743
163 82 367
164 82 648
165 82 979
166 81 120
167 81 174
168 80 909
169 80 243
170 79 407
171 79 58
172 78 581
173 78 19
174 78 944
175 77 255
176 76 291
177 76 84
178 76 659
179 75 177
180 75 303
181 75 380
182 75 798
183 74 857
184 72 157
185 72 757
186 71 506
187 71 403
188 69 528
189 69 69
190 69 463
191 69 66
192 68 48
193 68 262
194 67 897
195 66 846
196 65 267
197 63 505
198 62 258
199 62 625
200 60 558
